Na P                                    
   1.00000000000000     
    16.5680000000000014    0.0000000000000000    0.0000000000000000
     0.0000000000000000   21.8814999999999991    0.0000000000000000
     0.0000000000000000    0.0000000000000000   15.0000000000000000
   Na   P 
     1    99
Selective dynamics
Direct
  0.4528708510504821  0.7742840945680799  0.2731242978938875   T   T   T
  0.7502790564667280  0.6165484978840502  0.5717387497652644   T   T   T
  0.7497376343487951  0.7836390845393880  0.4286961091286666   T   T   T
  0.6510654590267497  0.7138703213369325  0.4293653952854051   T   T   T
  0.6491911607730229  0.4839835102687136  0.5708480985025940   T   T   T
  0.7492609104212672  0.4162096872969057  0.5708344480808047   T   T   T
  0.7501739017414107  0.5831959191403970  0.4298527782613497   T   T   T
  0.6478333830950971  0.5183782556072556  0.4288733456533606   T   T   T
  0.6498033292563818  0.2845003140829890  0.5706981449254793   T   T   T
  0.7497100263574356  0.2164222105574142  0.5710947713032201   T   T   T
  0.7498290034386316  0.3841292757353925  0.4284229560616265   T   T   T
  0.6497071516547315  0.3164601775086403  0.4282729785872411   T   T   T
  0.6500672169387270  0.0837566450786159  0.5714124776757298   T   T   T
  0.7500288142309487  0.0159937165827645  0.5710514082474346   T   T   T
  0.7499711172195150  0.1839501596021640  0.4285928828424690   T   T   T
  0.6499018386714135  0.1163265696489463  0.4290669968592541   T   T   T
  0.4499557119066428  0.8841081017697898  0.5705570111863913   T   T   T
  0.5506680084904312  0.8170240882342631  0.5729761662792463   T   T   T
  0.5504006016290796  0.9841754591482882  0.4283101278642585   T   T   T
  0.4500566842541864  0.9167908276554817  0.4286168339026672   T   T   T
  0.4499816493226353  0.6793514577395139  0.5775410916021941   T   T   T
  0.5529852613581558  0.6142086121733575  0.5694589007768361   T   T   T
  0.4500596258509932  0.7122403228499863  0.4372002746588228   T   T   T
  0.5501188244704309  0.7804256673754034  0.4327858941309818   T   T   T
  0.6509382808404220  0.6850961432690421  0.5725736773038900   T   T   T
  0.6500980031235589  0.9162164835437070  0.4292620525752457   T   T   T
  0.9500161997750025  0.8162972468632085  0.5713873785768834   T   T   T
  0.9500031836226646  0.9841116615636022  0.4285167515358159   T   T   T
  0.8502242273617679  0.9161341298810509  0.4286446192555889   T   T   T
  0.8500493227746403  0.6839720680795691  0.5710113643462449   T   T   T
  0.9500211851950239  0.6164683457096380  0.5712292314222875   T   T   T
  0.9500249400468795  0.7840815445004158  0.4288708068585676   T   T   T
  0.8501351797470800  0.7162590972612286  0.4285121227748143   T   T   T
  0.8499150797373698  0.4835169462800664  0.5714233278873372   T   T   T
  0.9500029919097759  0.4157225961486568  0.5714495882205505   T   T   T
  0.9500062771174973  0.5836766136432493  0.4291246681014190   T   T   T
  0.8499654804699325  0.2839039082669039  0.5713544426885646   T   T   T
  0.2498781085107215  0.9162034617285411  0.4292266734875502   T   T   T
  0.9500000999748407  0.2160883522689401  0.5710546932148840   T   T   T
  0.9500021351173039  0.3837564599186298  0.4289499694958467   T   T   T
  0.8497933934772263  0.3162209341222901  0.4288846701004046   T   T   T
  0.8499858678157202  0.0837886584397097  0.5714105461623297   T   T   T
  0.9499988572582359  0.0159824164607718  0.5712095341743971   T   T   T
  0.9500015694264978  0.1838317819877004  0.4286053974458698   T   T   T
  0.8499315475619243  0.1161050876568761  0.4289325417847988   T   T   T
  0.6509929931706077  0.8844096894492660  0.5717547633048137   T   T   T
  0.7502346488163633  0.8159446506371684  0.5714092419847580   T   T   T
  0.7502509809010441  0.9838793271915257  0.4284102949370697   T   T   T
  0.4499709691372538  0.4856282234689925  0.5693366381781627   T   T   T
  0.0500683834931518  0.1161025774304807  0.4289326814642513   T   T   T
  0.5446868533158155  0.5793321271871245  0.4325433567210138   T   T   T
  0.2500999952132685  0.1163228611883417  0.4290621075814287   T   T   T
  0.0498981909764463  0.8841250150470277  0.5712258179484492   T   T   T
  0.1497994344394857  0.8159123844341514  0.5713809622673650   T   T   T
  0.1497463870609154  0.9838894985863341  0.4283939855387111   T   T   T
  0.0497825009751491  0.9161333987577489  0.4286382519532180   T   T   T
  0.0499783758827855  0.6839933630237821  0.5709987578115471   T   T   T
  0.1498346880899349  0.6166506830563344  0.5716319636503558   T   T   T
  0.1503227534492125  0.7836437923183963  0.4286586747132607   T   T   T
  0.0499201639232172  0.7162602971327842  0.4285098185441755   T   T   T
  0.0500905560580172  0.4835223120474061  0.5714342320620055   T   T   T
  0.1507351427509948  0.4162112024540933  0.5708242322384098   T   T   T
  0.1498392912823267  0.5832135583944961  0.4297768710084174   T   T   T
  0.0499055786237304  0.5164437253354439  0.4295766601420989   T   T   T
  0.0500359778033316  0.2839025194375321  0.5713553747429901   T   T   T
  0.1502909189419925  0.2164199633489290  0.5710934510898070   T   T   T
  0.1501688065844326  0.3841297951548844  0.4284109151905580   T   T   T
  0.0502078113156906  0.3162188144447009  0.4288830937433575   T   T   T
  0.0500180975149932  0.0837825003745350  0.5714133799952672   T   T   T
  0.1499764545979296  0.0159816825543325  0.5710405842236360   T   T   T
  0.1500290570946045  0.1839472681946911  0.4285905034795878   T   T   T
  0.3500906642096802  0.0162112550562363  0.5708594245094655   T   T   T
  0.2499423991951528  0.0837433624906843  0.5714015973664476   T   T   T
  0.3499622597202215  0.1841280973641931  0.4291874817670779   T   T   T
  0.2502904473565815  0.3164602574865837  0.4282738819302790   T   T   T
  0.4500005292228683  0.2844653297093186  0.5701265088035804   T   T   T
  0.3505894653830250  0.3842999498020919  0.4278405408244098   T   T   T
  0.5500082116170828  0.2166422445346547  0.5717801253822417   T   T   T
  0.5494043078710665  0.3842982304120802  0.4278277474577519   T   T   T
  0.4499969141547623  0.3163282713178465  0.4280474593305565   T   T   T
  0.4499945697916209  0.0839138823165592  0.5714117668912422   T   T   T
  0.5499160634499141  0.0162264552273510  0.5708628765235881   T   T   T
  0.5500370564075490  0.1841290266537484  0.4291861880485512   T   T   T
  0.4499999736707437  0.1165610819928091  0.4291583258409421   T   T   T
  0.2491193767943058  0.8843115803030456  0.5716570350448792   T   T   T
  0.3494007205239105  0.8169015405350347  0.5722619767027660   T   T   T
  0.8501141229639216  0.5164348042368595  0.4295637264078813   T   T   T
  0.8501449008705698  0.8841341560836823  0.5712307923238303   T   T   T
  0.2491876077595150  0.6852152045985680  0.5724307361226084   T   T   T
  0.3469867677635486  0.6142087628670918  0.5695209274847820   T   T   T
  0.3501523023081116  0.7805019130000704  0.4318638937382482   T   T   T
  0.2490659650521557  0.7139143327368473  0.4291390054886723   T   T   T
  0.2507962746740678  0.4839820149400267  0.5708678882627708   T   T   T
  0.3521439643940003  0.4179133791861162  0.5699701122599397   T   T   T
  0.3553490500605062  0.5793093652723856  0.4326206396926121   T   T   T
  0.2521660627220326  0.5183811902807793  0.4288875029945789   T   T   T
  0.2501945310587760  0.2845007626985945  0.5707002654862751   T   T   T
  0.3499909654923014  0.2166434645551904  0.5717823239849369   T   T   T
  0.3496285671508602  0.9841210440027084  0.4283099308897722   T   T   T
  0.5478225974264782  0.4179318548582489  0.5699433763691288   T   T   T
 
  0.00000000E+00  0.00000000E+00  0.00000000E+00
  0.00000000E+00  0.00000000E+00  0.00000000E+00
  0.00000000E+00  0.00000000E+00  0.00000000E+00
  0.00000000E+00  0.00000000E+00  0.00000000E+00
  0.00000000E+00  0.00000000E+00  0.00000000E+00
  0.00000000E+00  0.00000000E+00  0.00000000E+00
  0.00000000E+00  0.00000000E+00  0.00000000E+00
  0.00000000E+00  0.00000000E+00  0.00000000E+00
  0.00000000E+00  0.00000000E+00  0.00000000E+00
  0.00000000E+00  0.00000000E+00  0.00000000E+00
  0.00000000E+00  0.00000000E+00  0.00000000E+00
  0.00000000E+00  0.00000000E+00  0.00000000E+00
  0.00000000E+00  0.00000000E+00  0.00000000E+00
  0.00000000E+00  0.00000000E+00  0.00000000E+00
  0.00000000E+00  0.00000000E+00  0.00000000E+00
  0.00000000E+00  0.00000000E+00  0.00000000E+00
  0.00000000E+00  0.00000000E+00  0.00000000E+00
  0.00000000E+00  0.00000000E+00  0.00000000E+00
  0.00000000E+00  0.00000000E+00  0.00000000E+00
  0.00000000E+00  0.00000000E+00  0.00000000E+00
  0.00000000E+00  0.00000000E+00  0.00000000E+00
  0.00000000E+00  0.00000000E+00  0.00000000E+00
  0.00000000E+00  0.00000000E+00  0.00000000E+00
  0.00000000E+00  0.00000000E+00  0.00000000E+00
  0.00000000E+00  0.00000000E+00  0.00000000E+00
  0.00000000E+00  0.00000000E+00  0.00000000E+00
  0.00000000E+00  0.00000000E+00  0.00000000E+00
  0.00000000E+00  0.00000000E+00  0.00000000E+00
  0.00000000E+00  0.00000000E+00  0.00000000E+00
  0.00000000E+00  0.00000000E+00  0.00000000E+00
  0.00000000E+00  0.00000000E+00  0.00000000E+00
  0.00000000E+00  0.00000000E+00  0.00000000E+00
  0.00000000E+00  0.00000000E+00  0.00000000E+00
  0.00000000E+00  0.00000000E+00  0.00000000E+00
  0.00000000E+00  0.00000000E+00  0.00000000E+00
  0.00000000E+00  0.00000000E+00  0.00000000E+00
  0.00000000E+00  0.00000000E+00  0.00000000E+00
  0.00000000E+00  0.00000000E+00  0.00000000E+00
  0.00000000E+00  0.00000000E+00  0.00000000E+00
  0.00000000E+00  0.00000000E+00  0.00000000E+00
  0.00000000E+00  0.00000000E+00  0.00000000E+00
  0.00000000E+00  0.00000000E+00  0.00000000E+00
  0.00000000E+00  0.00000000E+00  0.00000000E+00
  0.00000000E+00  0.00000000E+00  0.00000000E+00
  0.00000000E+00  0.00000000E+00  0.00000000E+00
  0.00000000E+00  0.00000000E+00  0.00000000E+00
  0.00000000E+00  0.00000000E+00  0.00000000E+00
  0.00000000E+00  0.00000000E+00  0.00000000E+00
  0.00000000E+00  0.00000000E+00  0.00000000E+00
  0.00000000E+00  0.00000000E+00  0.00000000E+00
  0.00000000E+00  0.00000000E+00  0.00000000E+00
  0.00000000E+00  0.00000000E+00  0.00000000E+00
  0.00000000E+00  0.00000000E+00  0.00000000E+00
  0.00000000E+00  0.00000000E+00  0.00000000E+00
  0.00000000E+00  0.00000000E+00  0.00000000E+00
  0.00000000E+00  0.00000000E+00  0.00000000E+00
  0.00000000E+00  0.00000000E+00  0.00000000E+00
  0.00000000E+00  0.00000000E+00  0.00000000E+00
  0.00000000E+00  0.00000000E+00  0.00000000E+00
  0.00000000E+00  0.00000000E+00  0.00000000E+00
  0.00000000E+00  0.00000000E+00  0.00000000E+00
  0.00000000E+00  0.00000000E+00  0.00000000E+00
  0.00000000E+00  0.00000000E+00  0.00000000E+00
  0.00000000E+00  0.00000000E+00  0.00000000E+00
  0.00000000E+00  0.00000000E+00  0.00000000E+00
  0.00000000E+00  0.00000000E+00  0.00000000E+00
  0.00000000E+00  0.00000000E+00  0.00000000E+00
  0.00000000E+00  0.00000000E+00  0.00000000E+00
  0.00000000E+00  0.00000000E+00  0.00000000E+00
  0.00000000E+00  0.00000000E+00  0.00000000E+00
  0.00000000E+00  0.00000000E+00  0.00000000E+00
  0.00000000E+00  0.00000000E+00  0.00000000E+00
  0.00000000E+00  0.00000000E+00  0.00000000E+00
  0.00000000E+00  0.00000000E+00  0.00000000E+00
  0.00000000E+00  0.00000000E+00  0.00000000E+00
  0.00000000E+00  0.00000000E+00  0.00000000E+00
  0.00000000E+00  0.00000000E+00  0.00000000E+00
  0.00000000E+00  0.00000000E+00  0.00000000E+00
  0.00000000E+00  0.00000000E+00  0.00000000E+00
  0.00000000E+00  0.00000000E+00  0.00000000E+00
  0.00000000E+00  0.00000000E+00  0.00000000E+00
  0.00000000E+00  0.00000000E+00  0.00000000E+00
  0.00000000E+00  0.00000000E+00  0.00000000E+00
  0.00000000E+00  0.00000000E+00  0.00000000E+00
  0.00000000E+00  0.00000000E+00  0.00000000E+00
  0.00000000E+00  0.00000000E+00  0.00000000E+00
  0.00000000E+00  0.00000000E+00  0.00000000E+00
  0.00000000E+00  0.00000000E+00  0.00000000E+00
  0.00000000E+00  0.00000000E+00  0.00000000E+00
  0.00000000E+00  0.00000000E+00  0.00000000E+00
  0.00000000E+00  0.00000000E+00  0.00000000E+00
  0.00000000E+00  0.00000000E+00  0.00000000E+00
  0.00000000E+00  0.00000000E+00  0.00000000E+00
  0.00000000E+00  0.00000000E+00  0.00000000E+00
  0.00000000E+00  0.00000000E+00  0.00000000E+00
  0.00000000E+00  0.00000000E+00  0.00000000E+00
  0.00000000E+00  0.00000000E+00  0.00000000E+00
  0.00000000E+00  0.00000000E+00  0.00000000E+00
  0.00000000E+00  0.00000000E+00  0.00000000E+00
  0.00000000E+00  0.00000000E+00  0.00000000E+00
